; SMT 2
; Generated for Z3
(set-info :source "")
(set-option :produce-models true)

; find_symbols
(declare-fun |tmp| () (_ BitVec 64))
(declare-fun |inv_29| ((_ BitVec 32) (_ BitVec 32) (_ BitVec 32) (_ BitVec 64) (_ BitVec 64) (_ BitVec 64) (_ BitVec 64) (Array (_ BitVec 64) (_ BitVec 64)) (Array (_ BitVec 64) (Array (_ BitVec 64) (_ BitVec 64))) ) Bool)

(assert (forall ((|memor_0| (Array (_ BitVec 64) (Array (_ BitVec 64) (_ BitVec 64)))) (|alloc_0| (Array (_ BitVec 64) (_ BitVec 64))) (|main::$tmp::return_value_nondet_int| (_ BitVec 32)) (|main::$tmp::return_value_nondet_int$0| (_ BitVec 32)) (|main::$tmp::return_value_nondet_int$1| (_ BitVec 32)) (|main::1::1::i| (_ BitVec 64)) (|main::1::L| (_ BitVec 64)) (|main::1::M| (_ BitVec 64)) (|main::1::i| (_ BitVec 64)))
  (=> (= |alloc_0| ((as const (Array (_ BitVec 64) (_ BitVec 64)))(_ bv0 64))) 
    (|inv_29| |main::$tmp::return_value_nondet_int| |main::$tmp::return_value_nondet_int$0| |main::$tmp::return_value_nondet_int$1| |main::1::1::i| |main::1::L| |main::1::M| |main::1::i| |alloc_0| |memor_0|))))

(declare-fun |inv_28| ((_ BitVec 32) (_ BitVec 64) (_ BitVec 64) (_ BitVec 64) (_ BitVec 64) (Array (_ BitVec 64) (_ BitVec 64)) (Array (_ BitVec 64) (Array (_ BitVec 64) (_ BitVec 64))) ) Bool)

(assert (forall ((|memor_0| (Array (_ BitVec 64) (Array (_ BitVec 64) (_ BitVec 64)))) (|alloc_0| (Array (_ BitVec 64) (_ BitVec 64))) (|alloc_1| (Array (_ BitVec 64) (_ BitVec 64))) (|alloc_2| (Array (_ BitVec 64) (_ BitVec 64))) (|main::$tmp::return_value_nondet_int$0_1| (_ BitVec 32)) (|main::$tmp::return_value_nondet_int$0_2| (_ BitVec 32)) (|main::$tmp::return_value_nondet_int$1| (_ BitVec 32)) (|main::$tmp::return_value_nondet_int$1_1| (_ BitVec 32)) (|main::$tmp::return_value_nondet_int$1_2| (_ BitVec 32)) (|main::$tmp::return_value_nondet_int_2| (_ BitVec 32)) (|main::1::1::i| (_ BitVec 64)) (|main::1::1::i_1| (_ BitVec 64)) (|main::1::1::i_2| (_ BitVec 64)) (|main::1::L| (_ BitVec 64)) (|main::1::L_1| (_ BitVec 64)) (|main::1::L_2| (_ BitVec 64)) (|main::1::M| (_ BitVec 64)) (|main::1::M_1| (_ BitVec 64)) (|main::1::M_2| (_ BitVec 64)) (|main::1::i| (_ BitVec 64)) (|main::1::i_1| (_ BitVec 64)) (|main::1::i_2| (_ BitVec 64)))
  (=> (and 
    (|inv_29| |main::$tmp::return_value_nondet_int_2| |main::$tmp::return_value_nondet_int$0_2| |main::$tmp::return_value_nondet_int$1_2| |main::1::1::i_2| |main::1::L_2| |main::1::M_2| |main::1::i_2| |alloc_2| |memor_0|)
       (= |alloc_0| (store |alloc_1| (_ bv6053561456450 64) (_ bv6053561456450 64)))
       (= |alloc_1| (store |alloc_2| (_ bv9363835545496 64) (_ bv9363835545496 64)))
       (= |main::$tmp::return_value_nondet_int$0_2| |main::$tmp::return_value_nondet_int$0_1|)
       (= |main::$tmp::return_value_nondet_int$1_2| |main::$tmp::return_value_nondet_int$1_1|)
       (= |main::1::1::i_2| |main::1::1::i_1|)
       (= ((_ sign_extend 32) |main::$tmp::return_value_nondet_int_2|) |main::1::L_1|)
       (= |main::1::M_2| |main::1::M_1|)
       (= |main::1::i_2| |main::1::i_1|)
       (= |main::$tmp::return_value_nondet_int$1_1| |main::$tmp::return_value_nondet_int$1|)
       (= |main::1::1::i_1| |main::1::1::i|)
       (= |main::1::L_1| |main::1::L|)
       (= ((_ sign_extend 32) |main::$tmp::return_value_nondet_int$0_1|) |main::1::M|)
       (= |main::1::i_1| |main::1::i|)) 
    (|inv_28| |main::$tmp::return_value_nondet_int$1| |main::1::1::i| |main::1::L| |main::1::M| |main::1::i| |alloc_0| |memor_0|))))

(assert (forall ((|memor_0| (Array (_ BitVec 64) (Array (_ BitVec 64) (_ BitVec 64)))) (|alloc_0| (Array (_ BitVec 64) (_ BitVec 64))) (|main::$tmp::return_value_nondet_int$1| (_ BitVec 32)) (|main::1::1::i| (_ BitVec 64)) (|main::1::L| (_ BitVec 64)) (|main::1::M| (_ BitVec 64)) (|main::1::i| (_ BitVec 64)))
  (=> (and 
    (|inv_28| |main::$tmp::return_value_nondet_int$1| |main::1::1::i| |main::1::L| |main::1::M| |main::1::i| |alloc_0| |memor_0|)
       (not (and (bvugt |main::1::L| (_ bv0 64))
       (bvugt |main::1::M| (_ bv0 64))))) true)))

(declare-fun |inv_27| ((_ BitVec 32) (_ BitVec 64) (_ BitVec 64) (_ BitVec 64) (_ BitVec 64) (Array (_ BitVec 64) (_ BitVec 64)) (Array (_ BitVec 64) (Array (_ BitVec 64) (_ BitVec 64))) ) Bool)

(assert (forall ((|memor_0| (Array (_ BitVec 64) (Array (_ BitVec 64) (_ BitVec 64)))) (|alloc_0| (Array (_ BitVec 64) (_ BitVec 64))) (|main::$tmp::return_value_nondet_int$1| (_ BitVec 32)) (|main::1::1::i| (_ BitVec 64)) (|main::1::L| (_ BitVec 64)) (|main::1::M| (_ BitVec 64)) (|main::1::i| (_ BitVec 64)))
  (=> (and 
    (|inv_28| |main::$tmp::return_value_nondet_int$1| |main::1::1::i| |main::1::L| |main::1::M| |main::1::i| |alloc_0| |memor_0|)
       (and (bvugt |main::1::L| (_ bv0 64))
       (bvugt |main::1::M| (_ bv0 64)))) 
    (|inv_27| |main::$tmp::return_value_nondet_int$1| |main::1::1::i| |main::1::L| |main::1::M| |main::1::i| |alloc_0| |memor_0|))))

(assert (forall ((|memor_0| (Array (_ BitVec 64) (Array (_ BitVec 64) (_ BitVec 64)))) (|alloc_0| (Array (_ BitVec 64) (_ BitVec 64))) (|alloc_1| (Array (_ BitVec 64) (_ BitVec 64))) (|alloc_2| (Array (_ BitVec 64) (_ BitVec 64))) (|main::$tmp::return_value_nondet_int$1| (_ BitVec 32)) (|main::$tmp::return_value_nondet_int$1_1| (_ BitVec 32)) (|main::1::1::i| (_ BitVec 64)) (|main::1::1::i_1| (_ BitVec 64)) (|main::1::L| (_ BitVec 64)) (|main::1::L_1| (_ BitVec 64)) (|main::1::M| (_ BitVec 64)) (|main::1::M_1| (_ BitVec 64)) (|main::1::i| (_ BitVec 64)) (|main::1::i_1| (_ BitVec 64)))
  (=> (and 
    (|inv_27| |main::$tmp::return_value_nondet_int$1_1| |main::1::1::i_1| |main::1::L_1| |main::1::M_1| |main::1::i_1| |alloc_2| |memor_0|)
       (= |alloc_0| (store |alloc_1| (_ bv620109269044 64) (select |alloc_1| (_ bv6053561456450 64))))
       (= |alloc_1| (store |alloc_2| (_ bv6907487098696 64) (select |alloc_2| (_ bv9363835545496 64))))
       (= |main::$tmp::return_value_nondet_int$1_1| |main::$tmp::return_value_nondet_int$1|)
       (= (_ bv0 64) |main::1::1::i|)
       (= |main::1::L_1| |main::1::L|)
       (= |main::1::M_1| |main::1::M|)
       (= |main::1::i_1| |main::1::i|)
       (or (= (select |alloc_1| (_ bv6053561456450 64)) (_ bv0 64)) (= (select |alloc_2| (_ bv9363835545496 64)) (_ bv0 64)))) false)))

(declare-fun |inv_15| ((_ BitVec 32) (_ BitVec 64) (_ BitVec 64) (_ BitVec 64) (_ BitVec 64) (Array (_ BitVec 64) (_ BitVec 64)) (Array (_ BitVec 64) (Array (_ BitVec 64) (_ BitVec 64))) ) Bool)

(assert (forall ((|memor_0| (Array (_ BitVec 64) (Array (_ BitVec 64) (_ BitVec 64)))) (|alloc_0| (Array (_ BitVec 64) (_ BitVec 64))) (|alloc_1| (Array (_ BitVec 64) (_ BitVec 64))) (|alloc_2| (Array (_ BitVec 64) (_ BitVec 64))) (|main::$tmp::return_value_nondet_int$1| (_ BitVec 32)) (|main::$tmp::return_value_nondet_int$1_1| (_ BitVec 32)) (|main::1::1::i| (_ BitVec 64)) (|main::1::1::i_1| (_ BitVec 64)) (|main::1::L| (_ BitVec 64)) (|main::1::L_1| (_ BitVec 64)) (|main::1::M| (_ BitVec 64)) (|main::1::M_1| (_ BitVec 64)) (|main::1::i| (_ BitVec 64)) (|main::1::i_1| (_ BitVec 64)))
  (=> (and 
    (|inv_27| |main::$tmp::return_value_nondet_int$1_1| |main::1::1::i_1| |main::1::L_1| |main::1::M_1| |main::1::i_1| |alloc_2| |memor_0|)
       (= |alloc_0| (store |alloc_1| (_ bv620109269044 64) (select |alloc_1| (_ bv6053561456450 64))))
       (= |alloc_1| (store |alloc_2| (_ bv6907487098696 64) (select |alloc_2| (_ bv9363835545496 64))))
       (= |main::$tmp::return_value_nondet_int$1_1| |main::$tmp::return_value_nondet_int$1|)
       (= (_ bv0 64) |main::1::1::i|)
       (= |main::1::L_1| |main::1::L|)
       (= |main::1::M_1| |main::1::M|)
       (= |main::1::i_1| |main::1::i|)) 
    (|inv_15| |main::$tmp::return_value_nondet_int$1| |main::1::1::i| |main::1::L| |main::1::M| |main::1::i| |alloc_0| |memor_0|))))

(declare-fun |inv_20| ((_ BitVec 32) (_ BitVec 64) (_ BitVec 64) (_ BitVec 64) (_ BitVec 64) (Array (_ BitVec 64) (_ BitVec 64)) (Array (_ BitVec 64) (Array (_ BitVec 64) (_ BitVec 64))) ) Bool)

(assert (forall ((|memor_0| (Array (_ BitVec 64) (Array (_ BitVec 64) (_ BitVec 64)))) (|alloc_0| (Array (_ BitVec 64) (_ BitVec 64))) (|main::$tmp::return_value_nondet_int$1| (_ BitVec 32)) (|main::1::1::i| (_ BitVec 64)) (|main::1::L| (_ BitVec 64)) (|main::1::M| (_ BitVec 64)) (|main::1::i| (_ BitVec 64)))
  (=> (and 
    (|inv_15| |main::$tmp::return_value_nondet_int$1| |main::1::1::i| |main::1::L| |main::1::M| |main::1::i| |alloc_0| |memor_0|)
       (or (not (bvuge |main::1::1::i| |main::1::L|)) (not (bvuge |main::1::1::i| |main::1::M|)))) 
    (|inv_20| |main::$tmp::return_value_nondet_int$1| |main::1::1::i| |main::1::L| |main::1::M| |main::1::i| |alloc_0| |memor_0|))))

(declare-fun |inv_23| ((_ BitVec 32) (_ BitVec 64) (_ BitVec 64) (_ BitVec 64) (_ BitVec 64) (Array (_ BitVec 64) (_ BitVec 64)) (Array (_ BitVec 64) (Array (_ BitVec 64) (_ BitVec 64))) ) Bool)

(assert (forall ((|memor_0| (Array (_ BitVec 64) (Array (_ BitVec 64) (_ BitVec 64)))) (|alloc_0| (Array (_ BitVec 64) (_ BitVec 64))) (|main::$tmp::return_value_nondet_int$1| (_ BitVec 32)) (|main::1::1::i| (_ BitVec 64)) (|main::1::L| (_ BitVec 64)) (|main::1::M| (_ BitVec 64)) (|main::1::i| (_ BitVec 64)))
  (=> (and 
    (|inv_20| |main::$tmp::return_value_nondet_int$1| |main::1::1::i| |main::1::L| |main::1::M| |main::1::i| |alloc_0| |memor_0|)
       (not (and (not (bvuge |main::1::1::i| |main::1::L|))
       (not (bvuge |main::1::1::i| |main::1::M|))))) 
    (|inv_23| |main::$tmp::return_value_nondet_int$1| |main::1::1::i| |main::1::L| |main::1::M| |main::1::i| |alloc_0| |memor_0|))))

(declare-fun |inv_24| ((_ BitVec 32) (_ BitVec 64) (_ BitVec 64) (_ BitVec 64) (_ BitVec 64) (Array (_ BitVec 64) (_ BitVec 64)) (Array (_ BitVec 64) (Array (_ BitVec 64) (_ BitVec 64))) ) Bool)

(assert (forall ((|memor_0| (Array (_ BitVec 64) (Array (_ BitVec 64) (_ BitVec 64)))) (|alloc_0| (Array (_ BitVec 64) (_ BitVec 64))) (|main::$tmp::return_value_nondet_int$1| (_ BitVec 32)) (|main::1::1::i| (_ BitVec 64)) (|main::1::L| (_ BitVec 64)) (|main::1::M| (_ BitVec 64)) (|main::1::i| (_ BitVec 64)))
  (=> (and 
    (|inv_23| |main::$tmp::return_value_nondet_int$1| |main::1::1::i| |main::1::L| |main::1::M| |main::1::i| |alloc_0| |memor_0|)
       (not (not (bvuge |main::1::1::i| |main::1::L|)))) 
    (|inv_24| |main::$tmp::return_value_nondet_int$1| |main::1::1::i| |main::1::L| |main::1::M| |main::1::i| |alloc_0| |memor_0|))))

(assert (forall ((|memor_0| (Array (_ BitVec 64) (Array (_ BitVec 64) (_ BitVec 64)))) (|memor_1| (Array (_ BitVec 64) (Array (_ BitVec 64) (_ BitVec 64)))) (|alloc_0| (Array (_ BitVec 64) (_ BitVec 64))) (|alloc_1| (Array (_ BitVec 64) (_ BitVec 64))) (|main::$tmp::return_value_nondet_int$1| (_ BitVec 32)) (|main::1::1::i| (_ BitVec 64)) (|main::1::L| (_ BitVec 64)) (|main::1::M| (_ BitVec 64)) (|main::1::i| (_ BitVec 64)))
  (=> (and 
    (|inv_24| |main::$tmp::return_value_nondet_int$1| |main::1::1::i| |main::1::L| |main::1::M| |main::1::i| |alloc_1| |memor_1|)
       (= |memor_0| (store |memor_1| (select |alloc_0| (_ bv6907487098696 64)) (store (select |memor_1| (select |alloc_0| (_ bv6907487098696 64))) |main::1::1::i| (_ bv1 64))))
       (= |alloc_0| (store |alloc_1| (_ bv6907487098696 64) (select |alloc_1| (_ bv6053561456450 64))))
       (or (= (select |alloc_0| (_ bv6907487098696 64)) (_ bv0 64)) (= (select |alloc_1| (_ bv6053561456450 64)) (_ bv0 64)))) false)))

(declare-fun |inv_21| ((_ BitVec 32) (_ BitVec 64) (_ BitVec 64) (_ BitVec 64) (_ BitVec 64) (Array (_ BitVec 64) (_ BitVec 64)) (Array (_ BitVec 64) (Array (_ BitVec 64) (_ BitVec 64))) ) Bool)

(assert (forall ((|memor_0| (Array (_ BitVec 64) (Array (_ BitVec 64) (_ BitVec 64)))) (|memor_1| (Array (_ BitVec 64) (Array (_ BitVec 64) (_ BitVec 64)))) (|alloc_0| (Array (_ BitVec 64) (_ BitVec 64))) (|alloc_1| (Array (_ BitVec 64) (_ BitVec 64))) (|main::$tmp::return_value_nondet_int$1| (_ BitVec 32)) (|main::1::1::i| (_ BitVec 64)) (|main::1::L| (_ BitVec 64)) (|main::1::M| (_ BitVec 64)) (|main::1::i| (_ BitVec 64)))
  (=> (and 
    (|inv_24| |main::$tmp::return_value_nondet_int$1| |main::1::1::i| |main::1::L| |main::1::M| |main::1::i| |alloc_1| |memor_1|)
       (= |memor_0| (store |memor_1| (select |alloc_0| (_ bv6907487098696 64)) (store (select |memor_1| (select |alloc_0| (_ bv6907487098696 64))) |main::1::1::i| (_ bv1 64))))
       (= |alloc_0| (store |alloc_1| (_ bv6907487098696 64) (select |alloc_1| (_ bv6053561456450 64))))) 
    (|inv_21| |main::$tmp::return_value_nondet_int$1| |main::1::1::i| |main::1::L| |main::1::M| |main::1::i| |alloc_0| |memor_0|))))

(declare-fun |inv_22| ((_ BitVec 32) (_ BitVec 64) (_ BitVec 64) (_ BitVec 64) (_ BitVec 64) (Array (_ BitVec 64) (_ BitVec 64)) (Array (_ BitVec 64) (Array (_ BitVec 64) (_ BitVec 64))) ) Bool)

(assert (forall ((|memor_0| (Array (_ BitVec 64) (Array (_ BitVec 64) (_ BitVec 64)))) (|alloc_0| (Array (_ BitVec 64) (_ BitVec 64))) (|main::$tmp::return_value_nondet_int$1| (_ BitVec 32)) (|main::1::1::i| (_ BitVec 64)) (|main::1::L| (_ BitVec 64)) (|main::1::M| (_ BitVec 64)) (|main::1::i| (_ BitVec 64)))
  (=> (and 
    (|inv_23| |main::$tmp::return_value_nondet_int$1| |main::1::1::i| |main::1::L| |main::1::M| |main::1::i| |alloc_0| |memor_0|)
       (not (bvuge |main::1::1::i| |main::1::L|))) 
    (|inv_22| |main::$tmp::return_value_nondet_int$1| |main::1::1::i| |main::1::L| |main::1::M| |main::1::i| |alloc_0| |memor_0|))))

(assert (forall ((|memor_0| (Array (_ BitVec 64) (Array (_ BitVec 64) (_ BitVec 64)))) (|memor_1| (Array (_ BitVec 64) (Array (_ BitVec 64) (_ BitVec 64)))) (|alloc_0| (Array (_ BitVec 64) (_ BitVec 64))) (|alloc_1| (Array (_ BitVec 64) (_ BitVec 64))) (|main::$tmp::return_value_nondet_int$1| (_ BitVec 32)) (|main::1::1::i| (_ BitVec 64)) (|main::1::L| (_ BitVec 64)) (|main::1::M| (_ BitVec 64)) (|main::1::i| (_ BitVec 64)))
  (=> (and 
    (|inv_22| |main::$tmp::return_value_nondet_int$1| |main::1::1::i| |main::1::L| |main::1::M| |main::1::i| |alloc_1| |memor_1|)
       (= |memor_0| (store |memor_1| (select |alloc_0| (_ bv620109269044 64)) (store (select |memor_1| (select |alloc_0| (_ bv620109269044 64))) |main::1::1::i| (_ bv0 64))))
       (= |alloc_0| (store |alloc_1| (_ bv620109269044 64) (select |alloc_1| (_ bv9363835545496 64))))
       (or (= (select |alloc_0| (_ bv620109269044 64)) (_ bv0 64)) (= (select |alloc_1| (_ bv9363835545496 64)) (_ bv0 64)))) false)))

(assert (forall ((|memor_0| (Array (_ BitVec 64) (Array (_ BitVec 64) (_ BitVec 64)))) (|memor_1| (Array (_ BitVec 64) (Array (_ BitVec 64) (_ BitVec 64)))) (|alloc_0| (Array (_ BitVec 64) (_ BitVec 64))) (|alloc_1| (Array (_ BitVec 64) (_ BitVec 64))) (|main::$tmp::return_value_nondet_int$1| (_ BitVec 32)) (|main::1::1::i| (_ BitVec 64)) (|main::1::L| (_ BitVec 64)) (|main::1::M| (_ BitVec 64)) (|main::1::i| (_ BitVec 64)))
  (=> (and 
    (|inv_22| |main::$tmp::return_value_nondet_int$1| |main::1::1::i| |main::1::L| |main::1::M| |main::1::i| |alloc_1| |memor_1|)
       (= |memor_0| (store |memor_1| (select |alloc_0| (_ bv620109269044 64)) (store (select |memor_1| (select |alloc_0| (_ bv620109269044 64))) |main::1::1::i| (_ bv0 64))))
       (= |alloc_0| (store |alloc_1| (_ bv620109269044 64) (select |alloc_1| (_ bv9363835545496 64))))) 
    (|inv_21| |main::$tmp::return_value_nondet_int$1| |main::1::1::i| |main::1::L| |main::1::M| |main::1::i| |alloc_0| |memor_0|))))

(declare-fun |inv_18| ((_ BitVec 32) (_ BitVec 64) (_ BitVec 64) (_ BitVec 64) (_ BitVec 64) (Array (_ BitVec 64) (_ BitVec 64)) (Array (_ BitVec 64) (Array (_ BitVec 64) (_ BitVec 64))) ) Bool)

(assert (forall ((|memor_0| (Array (_ BitVec 64) (Array (_ BitVec 64) (_ BitVec 64)))) (|alloc_0| (Array (_ BitVec 64) (_ BitVec 64))) (|main::$tmp::return_value_nondet_int$1| (_ BitVec 32)) (|main::1::1::i| (_ BitVec 64)) (|main::1::L| (_ BitVec 64)) (|main::1::M| (_ BitVec 64)) (|main::1::i| (_ BitVec 64)))
  (=> 
    (|inv_21| |main::$tmp::return_value_nondet_int$1| |main::1::1::i| |main::1::L| |main::1::M| |main::1::i| |alloc_0| |memor_0|) 
    (|inv_18| |main::$tmp::return_value_nondet_int$1| |main::1::1::i| |main::1::L| |main::1::M| |main::1::i| |alloc_0| |memor_0|))))

(declare-fun |inv_19| ((_ BitVec 32) (_ BitVec 64) (_ BitVec 64) (_ BitVec 64) (_ BitVec 64) (Array (_ BitVec 64) (_ BitVec 64)) (Array (_ BitVec 64) (Array (_ BitVec 64) (_ BitVec 64))) ) Bool)

(assert (forall ((|memor_0| (Array (_ BitVec 64) (Array (_ BitVec 64) (_ BitVec 64)))) (|alloc_0| (Array (_ BitVec 64) (_ BitVec 64))) (|main::$tmp::return_value_nondet_int$1| (_ BitVec 32)) (|main::1::1::i| (_ BitVec 64)) (|main::1::L| (_ BitVec 64)) (|main::1::M| (_ BitVec 64)) (|main::1::i| (_ BitVec 64)))
  (=> (and 
    (|inv_20| |main::$tmp::return_value_nondet_int$1| |main::1::1::i| |main::1::L| |main::1::M| |main::1::i| |alloc_0| |memor_0|)
       (and (not (bvuge |main::1::1::i| |main::1::L|))
       (not (bvuge |main::1::1::i| |main::1::M|)))) 
    (|inv_19| |main::$tmp::return_value_nondet_int$1| |main::1::1::i| |main::1::L| |main::1::M| |main::1::i| |alloc_0| |memor_0|))))

(assert (forall ((|memor_0| (Array (_ BitVec 64) (Array (_ BitVec 64) (_ BitVec 64)))) (|memor_1| (Array (_ BitVec 64) (Array (_ BitVec 64) (_ BitVec 64)))) (|memor_2| (Array (_ BitVec 64) (Array (_ BitVec 64) (_ BitVec 64)))) (|alloc_0| (Array (_ BitVec 64) (_ BitVec 64))) (|main::$tmp::return_value_nondet_int$1| (_ BitVec 32)) (|main::1::1::i| (_ BitVec 64)) (|main::1::L| (_ BitVec 64)) (|main::1::M| (_ BitVec 64)) (|main::1::i| (_ BitVec 64)))
  (=> (and 
    (|inv_19| |main::$tmp::return_value_nondet_int$1| |main::1::1::i| |main::1::L| |main::1::M| |main::1::i| |alloc_0| |memor_2|)
       (= |memor_0| (store |memor_1| (select |alloc_0| (_ bv620109269044 64)) (store (select |memor_1| (select |alloc_0| (_ bv620109269044 64))) |main::1::1::i| (_ bv1 64))))
       (= |memor_1| (store |memor_2| (select |alloc_0| (_ bv6907487098696 64)) (store (select |memor_2| (select |alloc_0| (_ bv6907487098696 64))) |main::1::1::i| (_ bv0 64))))
       (or (= (select |alloc_0| (_ bv6907487098696 64)) (_ bv0 64)) (= (select |alloc_0| (_ bv620109269044 64)) (_ bv0 64)))) false)))

(assert (forall ((|memor_0| (Array (_ BitVec 64) (Array (_ BitVec 64) (_ BitVec 64)))) (|memor_1| (Array (_ BitVec 64) (Array (_ BitVec 64) (_ BitVec 64)))) (|memor_2| (Array (_ BitVec 64) (Array (_ BitVec 64) (_ BitVec 64)))) (|alloc_0| (Array (_ BitVec 64) (_ BitVec 64))) (|main::$tmp::return_value_nondet_int$1| (_ BitVec 32)) (|main::1::1::i| (_ BitVec 64)) (|main::1::L| (_ BitVec 64)) (|main::1::M| (_ BitVec 64)) (|main::1::i| (_ BitVec 64)))
  (=> (and 
    (|inv_19| |main::$tmp::return_value_nondet_int$1| |main::1::1::i| |main::1::L| |main::1::M| |main::1::i| |alloc_0| |memor_2|)
       (= |memor_0| (store |memor_1| (select |alloc_0| (_ bv620109269044 64)) (store (select |memor_1| (select |alloc_0| (_ bv620109269044 64))) |main::1::1::i| (_ bv1 64))))
       (= |memor_1| (store |memor_2| (select |alloc_0| (_ bv6907487098696 64)) (store (select |memor_2| (select |alloc_0| (_ bv6907487098696 64))) |main::1::1::i| (_ bv0 64))))) 
    (|inv_18| |main::$tmp::return_value_nondet_int$1| |main::1::1::i| |main::1::L| |main::1::M| |main::1::i| |alloc_0| |memor_0|))))

(assert (forall ((|memor_0| (Array (_ BitVec 64) (Array (_ BitVec 64) (_ BitVec 64)))) (|alloc_0| (Array (_ BitVec 64) (_ BitVec 64))) (|main::$tmp::return_value_nondet_int$1| (_ BitVec 32)) (|main::$tmp::return_value_nondet_int$1_1| (_ BitVec 32)) (|main::1::1::i| (_ BitVec 64)) (|main::1::1::i_1| (_ BitVec 64)) (|main::1::L| (_ BitVec 64)) (|main::1::L_1| (_ BitVec 64)) (|main::1::M| (_ BitVec 64)) (|main::1::M_1| (_ BitVec 64)) (|main::1::i| (_ BitVec 64)) (|main::1::i_1| (_ BitVec 64)))
  (=> (and 
    (|inv_18| |main::$tmp::return_value_nondet_int$1_1| |main::1::1::i_1| |main::1::L_1| |main::1::M_1| |main::1::i_1| |alloc_0| |memor_0|)
       (= |main::$tmp::return_value_nondet_int$1_1| |main::$tmp::return_value_nondet_int$1|)
       (= (bvadd |main::1::1::i_1| (_ bv1 64)) |main::1::1::i|)
       (= |main::1::L_1| |main::1::L|)
       (= |main::1::M_1| |main::1::M|)
       (= |main::1::i_1| |main::1::i|)) 
    (|inv_15| |main::$tmp::return_value_nondet_int$1| |main::1::1::i| |main::1::L| |main::1::M| |main::1::i| |alloc_0| |memor_0|))))

(declare-fun |inv_14| ((_ BitVec 64) (_ BitVec 64) (_ BitVec 64) (Array (_ BitVec 64) (_ BitVec 64)) (Array (_ BitVec 64) (Array (_ BitVec 64) (_ BitVec 64))) ) Bool)

(assert (forall ((|memor_0| (Array (_ BitVec 64) (Array (_ BitVec 64) (_ BitVec 64)))) (|alloc_0| (Array (_ BitVec 64) (_ BitVec 64))) (|main::$tmp::return_value_nondet_int$1_1| (_ BitVec 32)) (|main::1::1::i_1| (_ BitVec 64)) (|main::1::L| (_ BitVec 64)) (|main::1::L_1| (_ BitVec 64)) (|main::1::M| (_ BitVec 64)) (|main::1::M_1| (_ BitVec 64)) (|main::1::i| (_ BitVec 64)) (|main::1::i_1| (_ BitVec 64)))
  (=> (and 
    (|inv_15| |main::$tmp::return_value_nondet_int$1_1| |main::1::1::i_1| |main::1::L_1| |main::1::M_1| |main::1::i_1| |alloc_0| |memor_0|)
       (not (or (not (bvuge |main::1::1::i_1| |main::1::L_1|)) (not (bvuge |main::1::1::i_1| |main::1::M_1|))))
       (= |main::1::L_1| |main::1::L|)
       (= |main::1::M_1| |main::1::M|)
       (= ((_ sign_extend 32) |main::$tmp::return_value_nondet_int$1_1|) |main::1::i|)) 
    (|inv_14| |main::1::L| |main::1::M| |main::1::i| |alloc_0| |memor_0|))))

(declare-fun |inv_12| ((_ BitVec 64) (_ BitVec 64) (_ BitVec 64) (Array (_ BitVec 64) (_ BitVec 64)) (Array (_ BitVec 64) (Array (_ BitVec 64) (_ BitVec 64))) ) Bool)

(assert (forall ((|memor_0| (Array (_ BitVec 64) (Array (_ BitVec 64) (_ BitVec 64)))) (|alloc_0| (Array (_ BitVec 64) (_ BitVec 64))) (|main::1::L| (_ BitVec 64)) (|main::1::M| (_ BitVec 64)) (|main::1::i| (_ BitVec 64)))
  (=> 
    (|inv_14| |main::1::L| |main::1::M| |main::1::i| |alloc_0| |memor_0|) 
    (|inv_12| |main::1::L| |main::1::M| |main::1::i| |alloc_0| |memor_0|))))

(declare-fun |inv_13| ((_ BitVec 64) (_ BitVec 64) (_ BitVec 64) (Array (_ BitVec 64) (_ BitVec 64)) (Array (_ BitVec 64) (Array (_ BitVec 64) (_ BitVec 64))) ) Bool)

(assert (forall ((|memor_0| (Array (_ BitVec 64) (Array (_ BitVec 64) (_ BitVec 64)))) (|alloc_0| (Array (_ BitVec 64) (_ BitVec 64))) (|main::1::L| (_ BitVec 64)) (|main::1::M| (_ BitVec 64)) (|main::1::i| (_ BitVec 64)))
  (=> (and 
    (|inv_14| |main::1::L| |main::1::M| |main::1::i| |alloc_0| |memor_0|)
       (not (not (bvuge |main::1::i| |main::1::L|)))) 
    (|inv_13| |main::1::L| |main::1::M| |main::1::i| |alloc_0| |memor_0|))))

(declare-fun |inv_8| ((_ BitVec 64) (_ BitVec 64) (Array (_ BitVec 64) (_ BitVec 64)) (Array (_ BitVec 64) (Array (_ BitVec 64) (_ BitVec 64))) ) Bool)

(assert (forall ((|memor_0| (Array (_ BitVec 64) (Array (_ BitVec 64) (_ BitVec 64)))) (|alloc_0| (Array (_ BitVec 64) (_ BitVec 64))) (|main::1::L| (_ BitVec 64)) (|main::1::M| (_ BitVec 64)) (|main::1::i| (_ BitVec 64)))
  (=> 
    (|inv_13| |main::1::L| |main::1::M| |main::1::i| |alloc_0| |memor_0|) 
    (|inv_8| |main::1::M| |main::1::i| |alloc_0| |memor_0|))))

(declare-fun |inv_10| ((_ BitVec 64) (_ BitVec 64) (Array (_ BitVec 64) (_ BitVec 64)) (Array (_ BitVec 64) (Array (_ BitVec 64) (_ BitVec 64))) ) Bool)

(assert (forall ((|memor_0| (Array (_ BitVec 64) (Array (_ BitVec 64) (_ BitVec 64)))) (|alloc_0| (Array (_ BitVec 64) (_ BitVec 64))) (|main::1::L| (_ BitVec 64)) (|main::1::M| (_ BitVec 64)) (|main::1::i| (_ BitVec 64)))
  (=> (and 
    (|inv_12| |main::1::L| |main::1::M| |main::1::i| |alloc_0| |memor_0|)
       (not (bvuge |main::1::i| |main::1::L|))) 
    (|inv_10| |main::1::M| |main::1::i| |alloc_0| |memor_0|))))

(assert (forall ((|memor_0| (Array (_ BitVec 64) (Array (_ BitVec 64) (_ BitVec 64)))) (|alloc_0| (Array (_ BitVec 64) (_ BitVec 64))) (|main::1::M| (_ BitVec 64)) (|main::1::i| (_ BitVec 64)))
  (=> (and 
    (|inv_10| |main::1::M| |main::1::i| |alloc_0| |memor_0|)
       (not (= (select (select |memor_0| (select |alloc_0| (_ bv9363835545496 64))) |main::1::i|) (_ bv0 64)))
       (= (select |alloc_0| (_ bv9363835545496 64)) (_ bv0 64))) false)))

(assert (forall ((|memor_0| (Array (_ BitVec 64) (Array (_ BitVec 64) (_ BitVec 64)))) (|alloc_0| (Array (_ BitVec 64) (_ BitVec 64))) (|main::1::M| (_ BitVec 64)) (|main::1::i| (_ BitVec 64)))
  (=> (and 
    (|inv_10| |main::1::M| |main::1::i| |alloc_0| |memor_0|)
       (not (= (select (select |memor_0| (select |alloc_0| (_ bv9363835545496 64))) |main::1::i|) (_ bv0 64)))) false)))

(assert (forall ((|memor_0| (Array (_ BitVec 64) (Array (_ BitVec 64) (_ BitVec 64)))) (|alloc_0| (Array (_ BitVec 64) (_ BitVec 64))) (|main::1::M| (_ BitVec 64)) (|main::1::i| (_ BitVec 64)))
  (=> (and 
    (|inv_10| |main::1::M| |main::1::i| |alloc_0| |memor_0|)
       (= (select (select |memor_0| (select |alloc_0| (_ bv9363835545496 64))) |main::1::i|) (_ bv0 64))
       (= (select |alloc_0| (_ bv9363835545496 64)) (_ bv0 64))) false)))

(declare-fun |inv_9| ((_ BitVec 64) (_ BitVec 64) (Array (_ BitVec 64) (_ BitVec 64)) (Array (_ BitVec 64) (Array (_ BitVec 64) (_ BitVec 64))) ) Bool)

(assert (forall ((|memor_0| (Array (_ BitVec 64) (Array (_ BitVec 64) (_ BitVec 64)))) (|alloc_0| (Array (_ BitVec 64) (_ BitVec 64))) (|main::1::M| (_ BitVec 64)) (|main::1::i| (_ BitVec 64)))
  (=> (and 
    (|inv_10| |main::1::M| |main::1::i| |alloc_0| |memor_0|)
       (= (select (select |memor_0| (select |alloc_0| (_ bv9363835545496 64))) |main::1::i|) (_ bv0 64))) 
    (|inv_9| |main::1::M| |main::1::i| |alloc_0| |memor_0|))))

(assert (forall ((|memor_0| (Array (_ BitVec 64) (Array (_ BitVec 64) (_ BitVec 64)))) (|alloc_0| (Array (_ BitVec 64) (_ BitVec 64))) (|main::1::M| (_ BitVec 64)) (|main::1::i| (_ BitVec 64)))
  (=> 
    (|inv_9| |main::1::M| |main::1::i| |alloc_0| |memor_0|) 
    (|inv_8| |main::1::M| |main::1::i| |alloc_0| |memor_0|))))

(declare-fun |inv_7| ((_ BitVec 64) (_ BitVec 64) (Array (_ BitVec 64) (_ BitVec 64)) (Array (_ BitVec 64) (Array (_ BitVec 64) (_ BitVec 64))) ) Bool)

(assert (forall ((|memor_0| (Array (_ BitVec 64) (Array (_ BitVec 64) (_ BitVec 64)))) (|alloc_0| (Array (_ BitVec 64) (_ BitVec 64))) (|main::1::M| (_ BitVec 64)) (|main::1::i| (_ BitVec 64)))
  (=> 
    (|inv_8| |main::1::M| |main::1::i| |alloc_0| |memor_0|) 
    (|inv_7| |main::1::M| |main::1::i| |alloc_0| |memor_0|))))

(declare-fun |inv_5| ((_ BitVec 64) (_ BitVec 64) (Array (_ BitVec 64) (_ BitVec 64)) (Array (_ BitVec 64) (Array (_ BitVec 64) (_ BitVec 64))) ) Bool)

(assert (forall ((|memor_0| (Array (_ BitVec 64) (Array (_ BitVec 64) (_ BitVec 64)))) (|alloc_0| (Array (_ BitVec 64) (_ BitVec 64))) (|main::1::M| (_ BitVec 64)) (|main::1::i| (_ BitVec 64)))
  (=> 
    (|inv_7| |main::1::M| |main::1::i| |alloc_0| |memor_0|) 
    (|inv_5| |main::1::M| |main::1::i| |alloc_0| |memor_0|))))

(declare-fun |inv_6| ((_ BitVec 64) (_ BitVec 64) (Array (_ BitVec 64) (_ BitVec 64)) (Array (_ BitVec 64) (Array (_ BitVec 64) (_ BitVec 64))) ) Bool)

(assert (forall ((|memor_0| (Array (_ BitVec 64) (Array (_ BitVec 64) (_ BitVec 64)))) (|alloc_0| (Array (_ BitVec 64) (_ BitVec 64))) (|main::1::M| (_ BitVec 64)) (|main::1::i| (_ BitVec 64)))
  (=> (and 
    (|inv_7| |main::1::M| |main::1::i| |alloc_0| |memor_0|)
       (not (not (bvuge |main::1::i| |main::1::M|)))) 
    (|inv_6| |main::1::M| |main::1::i| |alloc_0| |memor_0|))))

(declare-fun |inv_1| ((Array (_ BitVec 64) (_ BitVec 64)) (Array (_ BitVec 64) (Array (_ BitVec 64) (_ BitVec 64))) ) Bool)

(assert (forall ((|memor_0| (Array (_ BitVec 64) (Array (_ BitVec 64) (_ BitVec 64)))) (|alloc_0| (Array (_ BitVec 64) (_ BitVec 64))) (|main::1::M| (_ BitVec 64)) (|main::1::i| (_ BitVec 64)))
  (=> 
    (|inv_6| |main::1::M| |main::1::i| |alloc_0| |memor_0|) 
    (|inv_1| |alloc_0| |memor_0|))))

(declare-fun |inv_3| ((_ BitVec 64) (Array (_ BitVec 64) (_ BitVec 64)) (Array (_ BitVec 64) (Array (_ BitVec 64) (_ BitVec 64))) ) Bool)

(assert (forall ((|memor_0| (Array (_ BitVec 64) (Array (_ BitVec 64) (_ BitVec 64)))) (|alloc_0| (Array (_ BitVec 64) (_ BitVec 64))) (|main::1::M| (_ BitVec 64)) (|main::1::i| (_ BitVec 64)))
  (=> (and 
    (|inv_5| |main::1::M| |main::1::i| |alloc_0| |memor_0|)
       (not (bvuge |main::1::i| |main::1::M|))) 
    (|inv_3| |main::1::i| |alloc_0| |memor_0|))))

(assert (forall ((|memor_0| (Array (_ BitVec 64) (Array (_ BitVec 64) (_ BitVec 64)))) (|alloc_0| (Array (_ BitVec 64) (_ BitVec 64))) (|main::1::i| (_ BitVec 64)))
  (=> (and 
    (|inv_3| |main::1::i| |alloc_0| |memor_0|)
       (not (= (select (select |memor_0| (select |alloc_0| (_ bv6053561456450 64))) |main::1::i|) (_ bv1 64)))
       (= (select |alloc_0| (_ bv6053561456450 64)) (_ bv0 64))) false)))

(assert (forall ((|memor_0| (Array (_ BitVec 64) (Array (_ BitVec 64) (_ BitVec 64)))) (|alloc_0| (Array (_ BitVec 64) (_ BitVec 64))) (|main::1::i| (_ BitVec 64)))
  (=> (and 
    (|inv_3| |main::1::i| |alloc_0| |memor_0|)
       (not (= (select (select |memor_0| (select |alloc_0| (_ bv6053561456450 64))) |main::1::i|) (_ bv1 64)))) false)))

(assert (forall ((|memor_0| (Array (_ BitVec 64) (Array (_ BitVec 64) (_ BitVec 64)))) (|alloc_0| (Array (_ BitVec 64) (_ BitVec 64))) (|main::1::i| (_ BitVec 64)))
  (=> (and 
    (|inv_3| |main::1::i| |alloc_0| |memor_0|)
       (= (select (select |memor_0| (select |alloc_0| (_ bv6053561456450 64))) |main::1::i|) (_ bv1 64))
       (= (select |alloc_0| (_ bv6053561456450 64)) (_ bv0 64))) false)))

(declare-fun |inv_2| ((Array (_ BitVec 64) (_ BitVec 64)) (Array (_ BitVec 64) (Array (_ BitVec 64) (_ BitVec 64))) ) Bool)

(assert (forall ((|memor_0| (Array (_ BitVec 64) (Array (_ BitVec 64) (_ BitVec 64)))) (|alloc_0| (Array (_ BitVec 64) (_ BitVec 64))) (|main::1::i| (_ BitVec 64)))
  (=> (and 
    (|inv_3| |main::1::i| |alloc_0| |memor_0|)
       (= (select (select |memor_0| (select |alloc_0| (_ bv6053561456450 64))) |main::1::i|) (_ bv1 64))) 
    (|inv_2| |alloc_0| |memor_0|))))

(assert (forall ((|memor_0| (Array (_ BitVec 64) (Array (_ BitVec 64) (_ BitVec 64)))) (|alloc_0| (Array (_ BitVec 64) (_ BitVec 64))))
  (=> 
    (|inv_2| |alloc_0| |memor_0|) 
    (|inv_1| |alloc_0| |memor_0|))))

(assert (forall ((|memor_0| (Array (_ BitVec 64) (Array (_ BitVec 64) (_ BitVec 64)))) (|alloc_0| (Array (_ BitVec 64) (_ BitVec 64))))
  (=> 
    (|inv_1| |alloc_0| |memor_0|) true)))

(check-sat)